p cnf 78 202
c ind 67 72 76 74 70 65 68 75 64 60 0
c ind 66 71 73 63 69 61 62 1 0
c ret 40 49 50 51 52 53 54 55 56 57 0
c ret 58 41 59 42 43 44 45 46 47 48 0
2 3 -26 35 -37 0
-2 26 0
-2 -35 0
-2 -3 0
-2 37 0
3 4 -13 -16 -20 0
-3 -4 0
-3 20 0
-3 16 0
-3 13 0
4 -5 -8 11 12 0
-4 8 0
-4 -12 0
-4 5 0
-4 -11 0
5 -6 7 0
5 7 -58 69 0
5 7 58 -69 0
-5 -7 0
-5 6 -58 -69 0
-5 6 58 69 0
6 46 -62 0
6 -46 62 0
-6 -46 -62 0
-6 46 62 0
7 -46 58 -63 71 0
7 46 -58 63 -71 0
7 46 58 63 71 0
7 -46 -58 -63 -71 0
-7 -46 63 0
-7 46 -63 0
-7 58 -71 0
-7 -58 71 0
8 9 -10 0
8 9 58 -75 0
8 9 -58 75 0
-8 -9 0
-8 10 58 75 0
-8 10 -58 -75 0
9 -46 58 -60 68 0
9 46 -58 60 -68 0
9 46 58 60 68 0
9 -46 -58 -60 -68 0
-9 -46 60 0
-9 46 -60 0
-9 58 -68 0
-9 -58 68 0
10 46 -65 0
10 -46 65 0
-10 -46 -65 0
-10 46 65 0
11 -46 58 -64 73 0
11 46 -58 64 -73 0
11 46 58 64 73 0
11 -46 -58 -64 -73 0
-11 -46 64 0
-11 46 -64 0
-11 58 -73 0
-11 -58 73 0
12 -46 58 -61 66 0
12 46 -58 61 -66 0
12 46 58 61 66 0
12 -46 -58 -61 -66 0
-12 -46 61 0
-12 46 -61 0
-12 58 -66 0
-12 -58 66 0
13 14 -15 -71 0
13 -14 -15 71 0
13 -14 71 -73 0
13 14 -71 -73 0
-13 -14 -71 0
-13 14 71 0
-13 15 73 0
14 -62 72 0
14 69 72 0
-14 -72 0
-14 62 -69 0
15 -63 74 0
15 71 74 0
-15 -74 0
-15 63 -71 0
16 17 -18 19 75 0
16 17 18 19 -75 0
-16 -17 0
-16 -18 -75 0
-16 -19 0
-16 18 75 0
17 -60 -66 67 0
17 -66 67 68 0
-17 66 0
-17 -67 0
-17 60 -68 0
18 -64 76 0
18 73 76 0
-18 -76 0
-18 64 -73 0
19 -61 -69 70 0
19 66 -69 70 0
-19 69 0
-19 -70 0
-19 61 -66 0
20 -21 -23 73 0
15 20 -21 -23 0
-20 23 0
-20 21 0
-15 -20 -73 0
21 -22 60 61 0
-21 22 0
-21 -61 0
-21 -60 0
22 62 63 64 65 0
-22 -65 0
-22 -64 0
-22 -62 0
-22 -63 0
23 -24 -69 0
23 -25 -66 0
23 -66 -69 0
23 -24 -25 0
-23 25 69 0
-23 24 66 0
24 67 68 0
24 -60 67 0
-24 -67 0
-24 60 -68 0
25 -61 70 0
25 66 70 0
-25 -70 0
-25 61 -66 0
26 -27 -31 -32 58 0
26 -27 31 -32 -58 0
-26 32 0
-26 -31 -58 0
-26 27 0
-26 31 58 0
27 -28 29 30 52 0
27 28 29 30 -52 0
-27 -29 0
-27 28 52 0
-27 -30 0
-27 -28 -52 0
28 -42 53 0
28 50 53 0
-28 -53 0
-28 42 -50 0
29 54 -55 0
29 43 -52 54 0
-29 -54 0
-29 -43 55 0
-29 52 55 0
30 -41 -50 51 0
30 47 -50 51 0
-30 50 0
-30 -51 0
-30 41 -47 0
31 -45 59 0
31 56 59 0
-31 -59 0
-31 45 -56 0
32 -33 -56 0
32 -33 54 57 0
-32 33 0
-32 -54 56 0
-32 56 -57 0
33 -34 44 45 46 0
-33 34 0
-33 -46 0
-33 -44 0
-33 -45 0
34 40 41 42 43 0
-34 -43 0
-34 -42 0
-34 -40 0
-34 -41 0
35 -36 -54 -56 0
35 54 -56 57 0
-35 56 0
-35 36 -54 0
-35 54 -57 0
36 -43 55 0
36 52 55 0
-36 -55 0
-36 43 -52 0
37 -38 39 -47 0
37 -38 -39 47 0
37 -39 47 -50 0
37 39 -47 -50 0
-37 -39 -47 0
-37 39 47 0
-37 38 50 0
38 -41 51 0
38 47 51 0
-38 -51 0
-38 41 -47 0
39 48 49 0
39 -40 48 0
-39 -48 0
-39 40 -49 0
1 2 0
-1 -2 0
77 0

